863335
63,4,84,88,7,52,90,43,54,71,62,67,98,79,12,31,59,30,61,92,48,55,68,74,5,40,17,9,76,29,95,20,19,8,32,69,73,36,47,0,56,46,94,24,77,50,78,28,39,93,16,25,11,18,23,58,89,33,70,45,27,22,10,97,53,64,51,42,21,72,83,91,38,13,85,80,65,6,3,44,86,75,37,35,49,87,82,14,15,81,57,60,66,34,41,96,26,1,2
